presolving:
(round 1, fast)       137 del vars, 0 del conss, 0 add conss, 0 chg bounds, 0 chg sides, 0 chg coeffs, 0 upgd conss, 0 impls, 272 clqs
(round 2, exhaustive) 137 del vars, 0 del conss, 0 add conss, 0 chg bounds, 0 chg sides, 0 chg coeffs, 272 upgd conss, 0 impls, 272 clqs
   (1.0s) probing: 51/18360 (0.3%) - 0 fixings, 0 aggregations, 0 implications, 0 bound changes
   (1.0s) probing aborted: 50/50 successive totally useless probings
   Deactivated symmetry handling methods, since SCIP was built without symmetry detector (SYM=none).
presolving (3 rounds: 3 fast, 2 medium, 2 exhaustive):
 137 deleted vars, 0 deleted constraints, 0 added constraints, 0 tightened bounds, 0 added holes, 0 changed sides, 0 changed coefficients
 0 implications, 272 cliques
presolved problem has 18495 variables (18360 bin, 0 int, 0 impl, 135 cont) and 18362 constraints
    272 constraints of type <setppc>
  18090 constraints of type <linear>
Presolving Time: 1.00

 time | node  | left  |LP iter|LP it/n|mem/heur|mdpt |vars |cons |rows |cuts |sepa|confs|strbr|  dualbound   | primalbound  |  gap   | compl. 
p 2.0s|     1 |     0 |   160 |     - | vbounds|   0 |  18k|  18k|  18k|   0 |  0 |   5 |   0 | 0.000000e+00 | 2.973762e+05 |    Inf | unknown
  2.0s|     1 |     0 |   498 |     - |   193M |   0 |  18k|  18k|  18k|   0 |  0 |   5 |   0 | 8.560650e+04 | 2.973762e+05 | 247.38%| unknown
  3.0s|     1 |     0 |   651 |     - |   198M |   0 |  18k|  18k|  18k| 118 |  1 |   5 |   0 | 8.862989e+04 | 2.973762e+05 | 235.53%| unknown
  3.0s|     1 |     0 |   733 |     - |   200M |   0 |  18k|  18k|  18k| 181 |  2 |   5 |   0 | 8.919343e+04 | 2.973762e+05 | 233.41%| unknown
  3.0s|     1 |     0 |   756 |     - |   204M |   0 |  18k|  18k|  18k| 202 |  3 |   5 |   0 | 8.921224e+04 | 2.973762e+05 | 233.34%| unknown
  4.0s|     1 |     0 |   817 |     - |   206M |   0 |  18k|  18k|  18k| 247 |  4 |   5 |   0 | 8.921224e+04 | 2.973762e+05 | 233.34%| unknown
  4.0s|     1 |     0 |   853 |     - |   209M |   0 |  18k|  18k|  18k| 271 |  5 |   5 |   0 | 8.921224e+04 | 2.973762e+05 | 233.34%| unknown
  4.0s|     1 |     0 |   872 |     - |   213M |   0 |  18k|  18k|  18k| 282 |  6 |   5 |   0 | 8.921224e+04 | 2.973762e+05 | 233.34%| unknown
  5.0s|     1 |     0 |   887 |     - |   216M |   0 |  18k|  18k|  18k| 294 |  7 |   5 |   0 | 8.921224e+04 | 2.973762e+05 | 233.34%| unknown
  5.0s|     1 |     0 |   894 |     - |   220M |   0 |  18k|  18k|  18k| 297 |  8 |   5 |   0 | 8.921224e+04 | 2.973762e+05 | 233.34%| unknown
  5.0s|     1 |     0 |   950 |     - |   222M |   0 |  18k|  18k|  18k| 322 |  9 |   5 |   0 | 8.921224e+04 | 2.973762e+05 | 233.34%| unknown
  6.0s|     1 |     0 |   976 |     - |   226M |   0 |  18k|  18k|  18k| 333 | 10 |   5 |   0 | 8.921236e+04 | 2.973762e+05 | 233.34%| unknown
  6.0s|     1 |     0 |   990 |     - |   228M |   0 |  18k|  18k|  18k| 338 | 11 |   5 |   0 | 8.921236e+04 | 2.973762e+05 | 233.34%| unknown
  6.0s|     1 |     0 |  1072 |     - |   230M |   0 |  18k|  18k|  18k| 355 | 12 |   5 |   0 | 8.922191e+04 | 2.973762e+05 | 233.30%| unknown
  7.0s|     1 |     0 |  1110 |     - |   232M |   0 |  18k|  18k|  18k| 380 | 13 |   5 |   0 | 8.922215e+04 | 2.973762e+05 | 233.30%| unknown
 time | node  | left  |LP iter|LP it/n|mem/heur|mdpt |vars |cons |rows |cuts |sepa|confs|strbr|  dualbound   | primalbound  |  gap   | compl. 
  8.0s|     1 |     0 |  1130 |     - |   233M |   0 |  18k|  18k|  18k| 391 | 14 |   5 |   0 | 8.922215e+04 | 2.973762e+05 | 233.30%| unknown
  8.0s|     1 |     0 |  1144 |     - |   235M |   0 |  18k|  18k|  18k| 402 | 15 |   5 |   0 | 8.922215e+04 | 2.973762e+05 | 233.30%| unknown
  8.0s|     1 |     0 |  1169 |     - |   237M |   0 |  18k|  18k|  18k| 412 | 16 |   5 |   0 | 8.922229e+04 | 2.973762e+05 | 233.30%| unknown
  8.0s|     1 |     0 |  1183 |     - |   239M |   0 |  18k|  18k|  18k| 423 | 17 |   5 |   0 | 8.922229e+04 | 2.973762e+05 | 233.30%| unknown
  9.0s|     1 |     0 |  1190 |     - |   241M |   0 |  18k|  18k|  18k| 427 | 18 |   5 |   0 | 8.922229e+04 | 2.973762e+05 | 233.30%| unknown
  9.0s|     1 |     0 |  1208 |     - |   242M |   0 |  18k|  18k|  18k| 438 | 19 |   5 |   0 | 8.922229e+04 | 2.973762e+05 | 233.30%| unknown
 10.0s|     1 |     0 |  1243 |     - |   244M |   0 |  18k|  18k|  18k| 448 | 20 |   5 |   0 | 8.922243e+04 | 2.973762e+05 | 233.30%| unknown
 10.0s|     1 |     0 |  1261 |     - |   244M |   0 |  18k|  18k|  18k| 455 | 21 |   5 |   0 | 8.922243e+04 | 2.973762e+05 | 233.30%| unknown
 11.0s|     1 |     0 |  1269 |     - |   244M |   0 |  18k|  18k|  18k| 461 | 22 |   5 |   0 | 8.922243e+04 | 2.973762e+05 | 233.30%| unknown
 11.0s|     1 |     0 |  1270 |     - |   244M |   0 |  18k|  18k|  18k| 462 | 23 |   5 |   0 | 8.922243e+04 | 2.973762e+05 | 233.30%| unknown
 34.0s|     1 |     2 |  7068 |     - |   249M |   0 |  18k|  18k|  18k| 462 | 23 |  22 |  22 | 8.922253e+04 | 2.973762e+05 | 233.30%| unknown
  416s|   100 |    99 | 18872 | 179.4 |   285M |  23 |  18k|  18k|  18k| 742 |  1 | 197 |1478 | 8.922281e+04 | 2.973762e+05 | 233.30%| unknown
  576s|   200 |   191 | 30809 | 149.2 |   307M |  24 |  18k|  18k|  18k|1075 |  1 | 272 |2024 | 8.924124e+04 | 2.973762e+05 | 233.23%| unknown

SCIP Status        : solving was interrupted [time limit reached]
Solving Time (sec) : 600.00
Solving Nodes      : 221
Primal Bound       : +2.97376231680981e+05 (1 solutions)
Dual Bound         : +8.92412374844641e+04
Gap                : 233.23 %
Trying to solve problem with MTZ Solver Method...
Starting Solver, time limit setted to 10 minutes
Route:  [[0, 2], [1, 3], [2, 1], [3, 4], [4, 5], [5, 6], [6, 7], [7, 8], [8, 9], [9, 10], [10, 11], [11, 12], [12, 13], [13, 14], [14, 15], [15, 16], [16, 17], [17, 18], [18, 19], [19, 20], [20, 21], [21, 22], [22, 23], [23, 24], [24, 25], [25, 26], [26, 27], [27, 28], [28, 29], [29, 30], [30, 31], [31, 32], [32, 33], [33, 34], [34, 35], [35, 36], [36, 37], [37, 38], [38, 39], [39, 40], [40, 41], [41, 42], [42, 43], [43, 44], [44, 45], [45, 46], [46, 47], [47, 48], [48, 49], [49, 50], [50, 51], [51, 52], [52, 53], [53, 54], [54, 55], [55, 56], [56, 57], [57, 58], [58, 59], [59, 60], [60, 61], [61, 62], [62, 63], [63, 64], [64, 65], [65, 66], [66, 67], [67, 68], [68, 69], [69, 70], [70, 71], [71, 72], [72, 73], [73, 74], [74, 75], [75, 76], [76, 77], [77, 78], [78, 79], [79, 80], [80, 81], [81, 82], [82, 83], [83, 84], [84, 85], [85, 86], [86, 87], [87, 88], [88, 89], [89, 90], [90, 91], [91, 92], [92, 93], [93, 94], [94, 95], [95, 96], [96, 97], [97, 98], [98, 99], [99, 100], [100, 101], [101, 102], [102, 103], [103, 104], [104, 105], [105, 106], [106, 107], [107, 108], [108, 109], [109, 110], [110, 111], [111, 112], [112, 113], [113, 114], [114, 115], [115, 116], [116, 117], [117, 118], [118, 119], [119, 120], [120, 121], [121, 122], [122, 123], [123, 124], [124, 125], [125, 126], [126, 127], [127, 128], [128, 129], [129, 130], [130, 131], [131, 132], [132, 133], [133, 134], [134, 135], [135, 0]]
An Otimal Solution was found, yay!
Objective value: 297376.2
Problem solved in 31321 iterations
Problem solved in 221 nodes
Final Route Configuration succesfully created at:
data/routes/pr136.csv
